
Gurobi 11.0.3 (linux64) logging started Fri Nov 22 06:17:06 2024

Set parameter LogFile to value "/home/yihong/Coding/OR_SUC/SUC_results_bigM100000_thread4/case24_ieee_rts_theta0.1_epsilon0.05_gurobi_seed710000_num_gen100_N_WDR100_load_scaling_factor1_exact_T16quadra_cost.txt"
Set parameter TimeLimit to value 3600
Gurobi Optimizer version 11.0.3 build v11.0.3rc0 (linux64 - "Ubuntu 20.04.6 LTS")

CPU model: AMD EPYC 7532 32-Core Processor, instruction set [SSE2|AVX|AVX2]
Thread count: 64 physical cores, 128 logical processors, using up to 4 threads

Optimize a model with 38307 rows, 20041 columns and 883306 nonzeros
Model fingerprint: 0x56328bc9
Model has 1600 quadratic constraints
Variable types: 18341 continuous, 1700 integer (1700 binary)
Coefficient statistics:
  Matrix range     [1e-04, 1e+05]
  QMatrix range    [2e-03, 8e-03]
  QLMatrix range   [1e-01, 6e+01]
  Objective range  [1e+00, 1e+00]
  Bounds range     [1e+00, 1e+00]
  RHS range        [1e+00, 1e+05]
Presolve removed 31338 rows and 8540 columns
Presolve time: 0.25s
Presolved: 6969 rows, 11501 columns, 38594 nonzeros
Presolved model has 1600 quadratic constraint(s)
Variable types: 9814 continuous, 1687 integer (1687 binary)

Root relaxation: objective 1.841239e+04, 5482 iterations, 0.13 seconds (0.19 work units)

    Nodes    |    Current Node    |     Objective Bounds      |     Work
 Expl Unexpl |  Obj  Depth IntInf | Incumbent    BestBd   Gap | It/Node Time

     0     0 18412.3854    0   28          - 18412.3854      -     -    0s
     0     0 206054.982    0  636          - 206054.982      -     -    0s
     0     0 206195.301    0  629          - 206195.301      -     -    0s
     0     0 393869.187    0  529          - 393869.187      -     -    0s
     0     0 394012.162    0  280          - 394012.162      -     -    0s
     0     0 394449.877    0  177          - 394449.877      -     -    1s
     0     0 394452.886    0  173          - 394452.886      -     -    1s
     0     0 394582.057    0  165          - 394582.057      -     -    1s
     0     0 394585.770    0  165          - 394585.770      -     -    1s
     0     2 394585.770    0  165          - 394585.770      -     -    1s
H  218   221                    397221.39984 394781.769  0.61%  24.2    2s
*  218   221              81    397221.39984 394781.769  0.61%  24.5    2s
H  347   272                    396398.07846 394781.769  0.41%  24.5    4s
*  347   272              91    396398.07846 394781.769  0.41%  24.7    4s
H  433   288                    396216.43212 394788.395  0.36%  23.9    4s
*  433   288              91    396216.43212 394788.395  0.36%  24.1    4s
   504   344 394977.005   33   92 396216.432 394788.395  0.36%  24.8    5s
H  706   410                    395183.69225 394788.395  0.10%  25.2    5s
*  706   410             113    395183.69225 394788.395  0.10%  25.3    5s

Cutting planes:
  Gomory: 16
  Implied bound: 211
  MIR: 125
  Flow cover: 419
  RLT: 5

Explored 999 nodes (38734 simplex iterations) in 6.26 seconds (7.74 work units)
Thread count was 4 (of 128 available processors)

Solution count 5: 395184 395184 396216 ... 397221

Optimal solution found (tolerance 1.00e-03)
Warning: max constraint violation (1.6111e-07) exceeds tolerance
Best objective 3.951836922473e+05, best bound 3.947942469945e+05, gap 0.0985%
